sat-instances/3.param.solution
language ESSENCE' 1.0
$ Minion SolverNodes: 64
$ Minion SolverTotalTime: 0.015031
$ Minion SolverTimeOut: 0
$ Savile Row TotalTime: 0.652
letting carrying be [3, 3, 2, 5, 5, 9, 9, 12, 21, 21]
letting registers be [[-1, 3, 3, 3, 3, 3, 9, 9, 9, 9]]
letting steps be [1, 4, 1, 5, 2, 1, 4, 1, 5, 2]
